NAME : tsp45_16.222.tour
COMMENT : Length = 222
COMMENT : Found by LKH [Keld Helsgaun]
TYPE : TOUR
DIMENSION : 45
TOUR_SECTION
1
5
24
28
30
36
9
41
38
3
21
27
25
31
16
13
17
34
29
4
8
10
33
39
40
26
12
43
2
32
14
37
6
11
18
45
19
15
42
23
7
35
44
22
20
-1
EOF
